Version identifier: 22.1.0.0 | 2022-03-09 | 1a383f8ce
CPXPARAM_Threads                                 1
CPXPARAM_MIP_Strategy_VariableSelect             3
CPXPARAM_TimeLimit                               596.89480927299996
1 of 1 MIP starts provided solutions.
MIP start 'm1' defined initial solution with objective 280.0000.
Tried aggregator 2 times.
MIP Presolve eliminated 40 rows and 1 columns.
MIP Presolve added 36 rows and 9 columns.
MIP Presolve modified 51 coefficients.
Aggregator did 9 substitutions.
Reduced MIP has 1807 rows, 6000 columns, and 109837 nonzeros.
Reduced MIP has 6000 binaries, 0 generals, 0 SOSs, and 0 indicators.
Presolve time = 0.14 sec. (204.49 ticks)
Probing time = 0.02 sec. (18.14 ticks)
Tried aggregator 1 time.
Detecting symmetries...
MIP Presolve modified 13 coefficients.
Reduced MIP has 1807 rows, 6000 columns, and 110084 nonzeros.
Reduced MIP has 6000 binaries, 0 generals, 0 SOSs, and 0 indicators.
Presolve time = 0.11 sec. (157.54 ticks)
Probing time = 0.02 sec. (18.17 ticks)
Clique table members: 1194.
MIP emphasis: balance optimality and feasibility.
MIP search method: dynamic search.
Parallel mode: none, using 1 thread.
Root relaxation solution time = 1.29 sec. (1551.75 ticks)

        Nodes                                         Cuts/
   Node  Left     Objective  IInf  Best Integer    Best Bound    ItCnt     Gap

*     0+    0                          280.0000    45150.0000              --- 
      0     0      300.0000  1302      280.0000      300.0000     4473    7.14%
      0     0      300.0000  1116      280.0000      Cuts: 15    11747    7.14%
      0     0      300.0000  1248      280.0000      Cuts: 26    18339    7.14%
      0     0      300.0000  1215      280.0000      Cuts: 28    24949    7.14%
      0     0      300.0000  1243      280.0000      Cuts: 18    30969    7.14%
Detecting symmetries...
      0     2      300.0000   787      280.0000      300.0000    30969    7.14%
Elapsed time = 80.45 sec. (83053.57 ticks, tree = 0.01 MB, solutions = 1)
      2     2      300.0000  1272      280.0000      300.0000    37509    7.14%
      3     2      300.0000  1291      280.0000      300.0000    44336    7.14%
      4     3      300.0000  1245      280.0000      300.0000    44512    7.14%
      5     4      300.0000  1263      280.0000      300.0000    45000    7.14%
      6     5      300.0000  1256      280.0000      300.0000    55018    7.14%
      7     6      300.0000  1234      280.0000      300.0000    61791    7.14%
      8     6      300.0000  1196      280.0000      300.0000    62873    7.14%
      9     7      300.0000  1283      280.0000      300.0000    62930    7.14%
     10     8      300.0000  1256      280.0000      300.0000    63051    7.14%
     11     9      300.0000  1241      280.0000      300.0000    69376    7.14%
Elapsed time = 97.82 sec. (101666.21 ticks, tree = 0.09 MB, solutions = 1)
     12    10      300.0000  1232      280.0000      300.0000    76446    7.14%
     13    11      300.0000  1226      280.0000      300.0000    84842    7.14%
     14    11      300.0000  1231      280.0000      300.0000    94529    7.14%
     16    12      300.0000  1118      280.0000      300.0000    99020    7.14%
     18    12      300.0000  1244      280.0000      300.0000   103546    7.14%
     21    14      300.0000  1287      280.0000      300.0000   105268    7.14%
     24    16      300.0000  1299      280.0000      300.0000   106595    7.14%
     26    17      300.0000  1298      280.0000      300.0000   107469    7.14%
     28    18      300.0000  1277      280.0000      300.0000   109692    7.14%
     32    20      299.0000  1191      280.0000      300.0000   110333    7.14%
Elapsed time = 118.63 sec. (124462.57 ticks, tree = 0.27 MB, solutions = 1)
     35    22      300.0000  1264      280.0000      300.0000   110756    7.14%
     38    24      300.0000  1270      280.0000      300.0000   111002    7.14%
     40    24      300.0000  1265      280.0000      300.0000   111620    7.14%
     43    27      300.0000  1245      280.0000      300.0000   111939    7.14%
     45    28      300.0000  1216      280.0000      300.0000   112734    7.14%
     46    29      300.0000  1074      280.0000      300.0000   121157    7.14%
     47    30      300.0000  1010      280.0000      300.0000   126611    7.14%
     48    31      300.0000   900      280.0000      300.0000   137896    7.14%
     49    31      299.8699  1182      280.0000      300.0000   153114    7.14%
     50    32      300.0000   886      280.0000      300.0000   162164    7.14%
Elapsed time = 146.03 sec. (153625.14 ticks, tree = 0.47 MB, solutions = 1)
     51    32      299.8698  1119      280.0000      300.0000   175798    7.14%
     53    33      299.0000  1154      280.0000      300.0000   186765    7.14%
     55    35      300.0000   879      280.0000      300.0000   186777    7.14%
     56    35      299.0000  1150      280.0000      300.0000   188087    7.14%
     57    36      300.0000   874      280.0000      300.0000   196009    7.14%
     59    37      299.0917  1114      280.0000      300.0000   197670    7.14%
     61    38      299.8831  1116      280.0000      300.0000   199634    7.14%
     63    39      300.0000   937      280.0000      300.0000   213396    7.14%
     64    40      300.0000   867      280.0000      300.0000   223240    7.14%
     65    40      299.0000  1138      280.0000      300.0000   224732    7.14%
Elapsed time = 170.63 sec. (179771.07 ticks, tree = 0.59 MB, solutions = 1)
     66    41      300.0000   780      280.0000      300.0000   233092    7.14%
     68    42      299.9626  1115      280.0000      300.0000   234451    7.14%
     70    43      300.0000   818      280.0000      300.0000   237339    7.14%
     71    43      299.0000  1131      280.0000      300.0000   243616    7.14%
     73    45      300.0000   793      280.0000      300.0000   243622    7.14%
     75    45      299.9813  1176      280.0000      300.0000   246639    7.14%
     78    48      299.0000  1127      280.0000      300.0000   247932    7.14%
     80    50      299.0000  1004      280.0000      300.0000   249560    7.14%
     83    52      299.0000  1054      280.0000      300.0000   250370    7.14%
     86    55      299.0000  1052      280.0000      300.0000   251503    7.14%
Elapsed time = 192.10 sec. (202401.76 ticks, tree = 0.64 MB, solutions = 1)
     89    57      299.0000  1089      280.0000      300.0000   252359    7.14%
     90    57      298.0000  1098      280.0000      300.0000   253144    7.14%
     94    59      298.8889  1062      280.0000      300.0000   254643    7.14%
     97    61      298.7833  1108      280.0000      300.0000   255513    7.14%
     99    63      299.0000   968      280.0000      300.0000   256645    7.14%
    102    66      298.8333  1052      280.0000      300.0000   257670    7.14%
    105    69      299.0000  1018      280.0000      300.0000   258639    7.14%
    107    69      299.0000   921      280.0000      300.0000   262645    7.14%
    109    70      298.0000  1021      280.0000      300.0000   268711    7.14%
    112    72      299.0000   874      280.0000      300.0000   269995    7.14%
Elapsed time = 209.51 sec. (220619.35 ticks, tree = 0.68 MB, solutions = 1)
    115    73    infeasible            280.0000      300.0000   271207    7.14%
    118    75      299.0000   867      280.0000      300.0000   272880    7.14%
    120    76      299.0000   931      280.0000      300.0000   274537    7.14%
    123    78      299.0000   931      280.0000      300.0000   275929    7.14%
    126    81      299.0000   915      280.0000      300.0000   277710    7.14%
    129    82      298.5667   954      280.0000      300.0000   279593    7.14%
    132    84      299.0000   908      280.0000      300.0000   281167    7.14%
    135    86      298.6049   944      280.0000      300.0000   283131    7.14%
    137    87      298.8750   907      280.0000      300.0000   284906    7.14%
    140    89      299.0000   895      280.0000      300.0000   286223    7.14%
Elapsed time = 221.99 sec. (234174.65 ticks, tree = 0.73 MB, solutions = 1)
    143    90      298.9678   881      280.0000      300.0000   289684    7.14%
    146    93      298.0000  1042      280.0000      300.0000   291383    7.14%
    147    94      298.0000  1038      280.0000      300.0000   297414    7.14%
    150    96      298.0000   944      280.0000      300.0000   299695    7.14%
    153    98      297.0000   939      280.0000      300.0000   301684    7.14%
    157   100      297.0000   878      280.0000      300.0000   302729    7.14%
    161   102      297.0000   875      280.0000      300.0000   303613    7.14%
    163   104      297.0000  1009      280.0000      300.0000   311558    7.14%
    165   104      287.0000   878      280.0000      300.0000   316007    7.14%
    168   106      296.0000   839      280.0000      300.0000   317613    7.14%
Elapsed time = 236.29 sec. (249216.32 ticks, tree = 0.77 MB, solutions = 1)
    171   108      296.0000   882      280.0000      300.0000   319889    7.14%
    174   110      296.0000   875      280.0000      300.0000   321497    7.14%
    177   112      295.7154   845      280.0000      300.0000   323555    7.14%
    180   114      296.0000   877      280.0000      300.0000   325028    7.14%
    183   115      296.0000   905      280.0000      300.0000   326310    7.14%
    187   117      296.0000   896      280.0000      300.0000   327393    7.14%
    190   120      296.0000   871      280.0000      300.0000   328492    7.14%
    194   123      295.7736   818      280.0000      300.0000   330319    7.14%
    198   127      295.0000   857      280.0000      300.0000   331274    7.14%
    201   130      295.0000   864      280.0000      300.0000   332179    7.14%
Elapsed time = 251.29 sec. (264873.74 ticks, tree = 0.83 MB, solutions = 1)
    204   131      293.0000   781      280.0000      300.0000   334820    7.14%
    209   135      292.0000   745      280.0000      300.0000   335884    7.14%
    212   138      292.0000   675      280.0000      300.0000   337725    7.14%
    217   141      292.0000   685      280.0000      300.0000   339528    7.14%
    223   143      291.0000   630      280.0000      300.0000   341061    7.14%
    229   143      291.0000   620      280.0000      300.0000   343121    7.14%
    235   143      291.0000   625      280.0000      300.0000   344771    7.14%
    240   142    infeasible            280.0000      300.0000   347454    7.14%
    241   142      299.0000   988      280.0000      300.0000   356680    7.14%
    244   145      299.0000  1183      280.0000      300.0000   364182    7.14%
Elapsed time = 268.09 sec. (282481.77 ticks, tree = 0.87 MB, solutions = 1)
    253   150      299.0000  1169      280.0000      300.0000   368436    7.14%
    260   156      298.0000   937      280.0000      300.0000   372470    7.14%
    263   159      298.7823   999      280.0000      300.0000   381500    7.14%
    271   164      299.0000  1062      280.0000      300.0000   386807    7.14%
    280   171      297.8750  1081      280.0000      300.0000   391488    7.14%
    289   176      298.3750  1075      280.0000      300.0000   405155    7.14%
    299   183      298.0000  1060      280.0000      300.0000   410346    7.14%
    305   187      297.2667  1054      280.0000      300.0000   418243    7.14%
    309   189      297.0000   919      280.0000      300.0000   428981    7.14%
    320   196      297.0000   955      280.0000      300.0000   432088    7.14%
Elapsed time = 310.50 sec. (328213.98 ticks, tree = 1.00 MB, solutions = 1)
    330   204      297.0000   899      280.0000      300.0000   437674    7.14%
    340   210      297.0000   888      280.0000      300.0000   447799    7.14%
    346   211      297.0000   787      280.0000      300.0000   458135    7.14%
    358   212      296.0000   794      280.0000      300.0000   465872    7.14%
    371   215      296.0000   717      280.0000      300.0000   472256    7.14%
    388   214    infeasible            280.0000      300.0000   480512    7.14%
    403   215      296.0000   776      280.0000      300.0000   487607    7.14%
    418   214    infeasible            280.0000      300.0000   495702    7.14%
    432   215      296.0000   785      280.0000      300.0000   507764    7.14%
    449   216      296.0000   784      280.0000      300.0000   513842    7.14%
Elapsed time = 353.17 sec. (372973.38 ticks, tree = 1.06 MB, solutions = 1)
    467   216      296.0000   778      280.0000      300.0000   520704    7.14%
    486   215    infeasible            280.0000      300.0000   528140    7.14%
    497   216    infeasible            280.0000      300.0000   538238    7.14%
    504   215      299.6786  1098      280.0000      300.0000   557169    7.14%
    505   216      300.0000   970      280.0000      300.0000   567566    7.14%
    512   222      299.0000  1134      280.0000      300.0000   572444    7.14%
    518   226      297.6173  1013      280.0000      300.0000   578490    7.14%
    529   234    infeasible            280.0000      300.0000   582019    7.14%
    540   243      294.0000   912      280.0000      300.0000   593193    7.14%
    546   246      293.0000   860      280.0000      300.0000   605036    7.14%
Elapsed time = 400.63 sec. (423091.10 ticks, tree = 1.10 MB, solutions = 1)
    550   247      292.0000   783      280.0000      300.0000   614187    7.14%
    564   256      287.0000   520      280.0000      300.0000   620522    7.14%
    580   263      285.0000   470      280.0000      300.0000   627746    7.14%
    602   278      300.0000  1064      280.0000      300.0000   642039    7.14%
    611   286      299.0000  1111      280.0000      300.0000   646010    7.14%
    619   294      299.0000  1090      280.0000      300.0000   648636    7.14%
    627   300      299.0000   980      280.0000      300.0000   653527    7.14%
    635   305      298.9236  1044      280.0000      300.0000   660362    7.14%
    638   306      298.9467  1080      280.0000      300.0000   670170    7.14%
    640   307      298.0000  1104      280.0000      300.0000   672882    7.14%
Elapsed time = 445.62 sec. (469868.33 ticks, tree = 1.27 MB, solutions = 1)
    648   312      299.0000   934      280.0000      300.0000   678896    7.14%
    656   318      299.0000   902      280.0000      300.0000   683918    7.14%
    660   320      299.0000   916      280.0000      300.0000   686526    7.14%
    667   324      298.9729  1024      280.0000      300.0000   694868    7.14%
    670   326      298.0000  1088      280.0000      300.0000   705734    7.14%
    678   333      298.0000   975      280.0000      300.0000   713181    7.14%
    688   337      299.0000   826      280.0000      300.0000   718702    7.14%
    692   338      298.9559   939      280.0000      300.0000   723112    7.14%
    700   343      299.0000   822      280.0000      300.0000   729748    7.14%
    707   348      299.0000   814      280.0000      300.0000   744217    7.14%
Elapsed time = 497.01 sec. (524255.60 ticks, tree = 1.38 MB, solutions = 1)
    714   352      299.0000   826      280.0000      300.0000   751507    7.14%
    721   355      299.0000   862      280.0000      300.0000   763874    7.14%
    730   360      298.0000  1107      280.0000      300.0000   770118    7.14%
    739   364      298.9247   942      280.0000      300.0000   777099    7.14%
    745   366      299.0000   865      280.0000      300.0000   788730    7.14%
    750   370      298.0000  1163      280.0000      300.0000   792673    7.14%
    758   375      298.9482   944      280.0000      300.0000   800380    7.14%
    761   377      299.0000   847      280.0000      300.0000   802537    7.14%
    768   382      298.9529   936      280.0000      300.0000   810540    7.14%
    772   385      299.0000   831      280.0000      300.0000   813774    7.14%
Elapsed time = 539.58 sec. (569975.88 ticks, tree = 1.47 MB, solutions = 1)
    780   391      299.0000   836      280.0000      300.0000   830016    7.14%
    788   395      298.0000   928      280.0000      300.0000   838262    7.14%
    793   398      298.9247   940      280.0000      300.0000   842437    7.14%
Starting limited solution polishing.
    800   402      299.0000   828      280.0000      300.0000   848225    7.14%
    804   403      299.0000  1145      280.0000      300.0000   855795    7.14%
    812   411      299.0000  1118      280.0000      300.0000   858923    7.14%
    816   415      299.0000  1127      280.0000      300.0000   868718    7.14%
    824   421      299.0000  1109      280.0000      300.0000   872852    7.14%
    832   426      299.0000  1119      280.0000      300.0000   877751    7.14%
    840   431      299.0000  1121      280.0000      300.0000   882656    7.14%
Elapsed time = 596.25 sec. (628250.56 ticks, tree = 1.59 MB, solutions = 1)

Clique cuts applied:  78
Zero-half cuts applied:  14

Root node processing (before b&c):
  Real time             =   80.38 sec. (82996.87 ticks)
Sequential b&c:
  Real time             =  516.52 sec. (546076.47 ticks)
                          ------------
Total (root+branch&cut) =  596.90 sec. (629073.33 ticks)
Primal:	280
Dual:	300
Status:	Feasible
Time:	596.97
Sequence:
	17
	5
	10
	5
	15
	2
	6
	15
	0
	7
	10
	6
	15
	0
	15
	7
	0
	15
	6
	2
	15
	0
	10
	6
	15
	2
	15
	5
	0
	10
	4
	15
	0
	7
	15
	1
	15
	7
	10
	0
	10
	8
	4
	10
	8
	10
	5
	3
	10
	5
	15
	2
	6
	15
	2
	15
	5
	11
	7
	15
	0
	13
	4
	10
	7
	15
	0
	17
	5
	10
	7
	15
	0
	17
	5
	10
	7
	10
	0
	15
	1
	15
	7
	10
	5
	12
	5
	15
	2
	15
	0
	15
	5
	11
	7
	5
	10
	8
	10
	4
	10
	8
	10
	5
	10
	7
	10
	6
	15
	0
	15
	7
	1
	15
	0
	15
	2
	6
	15
	0
	7
	10
	0
	15
	0
	4
	10
	0
	15
	7
	10
	5
	12
	5
	15
	2
	15
	1
	15
	5
	10
	7
	11
	5
	15
	0
	10
	4
	8
	10
	5
	15
	3
	5
	10
	2
	15
	5
	12
	0
	15
	7
	10
	5
	12
	0
	15
	7
	10
	0
	17
	0
	15
	7
	0
	15
	0
	7
	10
	4
	13
	0
	15
	7
	10
	0
	13
	4
	15
	2
	15
	5
	10
	8
	4
	10
	8
	10
	5
	7
	10
	4
	13
	5
	15
	2
	15
	5
	12
	5
	15
	2
	5
	10
	5
	3
	15
	0
	15
	8
	10
	4
	8
	10
	5
	15
	2
	15
	5
	12
	0
	15
	7
	10
	5
	8
	10
	4
	10
	8
	15
	0
	7
	10
	6
	15
	0
	15
	7
	1
	15
	7
	10
	0
	13
	4
	15
	2
	15
	5
	10
	8
	10
	4
	10
	5
	0
	15
	3
	15
	5
	10
	5
	3
	15
	5
	10
	5
	10
	4
